decision_x1=[0,2];
decision_x2=[0,2];
decision_x3=[0,2];
decision_x4=[0,2];
decision_x5=[0,2];
decision_x6=[0,2];
decision_x7=[0,2];
decision_x8=[0,2];
decision_x9=[0,2];
decision_x10=[0,2];
decision_x11=[0,2];
decision_x12=[0,2];
random_y1=[0,2];
random_y2=[0,2];
random_y3=[0,2];
random_y4=[0,2];
random_y5=[0,2];
random_y6=[0,2];
random_y7=[0,2];
random_y8=[0,2];
random_y9=[0,2];
random_y10=[0,2];
random_y11=[0,2];
random_y12=[0,2];
constraint_x3_x2=[
0,0,17|
0,1,71|
0,2,83|
1,0,46|
1,1,61|
1,2,31|
2,0,79|
2,1,72|
2,2,57|
];
constraint_x4_x2=[
0,0,2.6|
0,1,23|
0,2,82|
1,0,46|
1,1,0.25|
1,2,51|
2,0,72|
2,1,1.4|
2,2,84|
];
constraint_x5_x1=[
0,0,51|
0,1,98|
0,2,97|
1,0,74|
1,1,7.5|
1,2,67|
2,0,90|
2,1,26|
2,2,60|
];
constraint_x6_x1=[
0,0,46|
0,1,94|
0,2,6.2|
1,0,70|
1,1,20|
1,2,63|
2,0,20|
2,1,87|
2,2,11|
];
constraint_x6_x3=[
0,0,17|
0,1,5|
0,2,7|
1,0,90|
1,1,7.1|
1,2,14|
2,0,76|
2,1,71|
2,2,0.82|
];
constraint_x6_x4=[
0,0,94|
0,1,81|
0,2,79|
1,0,98|
1,1,55|
1,2,3.7|
2,0,83|
2,1,64|
2,2,52|
];
constraint_x7_x2=[
0,0,24|
0,1,24|
0,2,24|
1,0,51|
1,1,15|
1,2,7.1|
2,0,33|
2,1,1.7|
2,2,92|
];
constraint_x7_x5=[
0,0,0.31|
0,1,97|
0,2,8.1|
1,0,45|
1,1,68|
1,2,92|
2,0,3.9|
2,1,4.9|
2,2,80|
];
constraint_x7_x6=[
0,0,22|
0,1,17|
0,2,60|
1,0,59|
1,1,61|
1,2,82|
2,0,51|
2,1,7.9|
2,2,43|
];
constraint_x8_x1=[
0,0,71|
0,1,40|
0,2,90|
1,0,14|
1,1,84|
1,2,64|
2,0,82|
2,1,88|
2,2,88|
];
constraint_x8_x2=[
0,0,49|
0,1,25|
0,2,57|
1,0,86|
1,1,21|
1,2,25|
2,0,47|
2,1,82|
2,2,1.7|
];
constraint_x8_x5=[
0,0,59|
0,1,13|
0,2,69|
1,0,92|
1,1,48|
1,2,10|
2,0,21|
2,1,18|
2,2,35|
];
constraint_x8_x6=[
0,0,18|
0,1,71|
0,2,24|
1,0,79|
1,1,37|
1,2,53|
2,0,4.6|
2,1,29|
2,2,39|
];
constraint_x8_x7=[
0,0,94|
0,1,67|
0,2,80|
1,0,58|
1,1,40|
1,2,86|
2,0,15|
2,1,75|
2,2,57|
];
constraint_x9_x4=[
0,0,68|
0,1,39|
0,2,20|
1,0,77|
1,1,56|
1,2,63|
2,0,31|
2,1,44|
2,2,28|
];
constraint_x9_x5=[
0,0,6.5|
0,1,88|
0,2,11|
1,0,92|
1,1,26|
1,2,44|
2,0,37|
2,1,32|
2,2,21|
];
constraint_x10_x1=[
0,0,40|
0,1,58|
0,2,31|
1,0,78|
1,1,55|
1,2,27|
2,0,37|
2,1,40|
2,2,95|
];
constraint_x10_x4=[
0,0,94|
0,1,97|
0,2,70|
1,0,1.1|
1,1,33|
1,2,8.2|
2,0,94|
2,1,64|
2,2,2.2|
];
constraint_x10_x5=[
0,0,20|
0,1,50|
0,2,97|
1,0,54|
1,1,2.4|
1,2,45|
2,0,14|
2,1,16|
2,2,99|
];
constraint_x10_x6=[
0,0,35|
0,1,24|
0,2,93|
1,0,98|
1,1,65|
1,2,1.2|
2,0,23|
2,1,56|
2,2,35|
];
constraint_x11_x1=[
0,0,28|
0,1,94|
0,2,0.88|
1,0,39|
1,1,76|
1,2,37|
2,0,62|
2,1,48|
2,2,59|
];
constraint_x11_x2=[
0,0,92|
0,1,54|
0,2,16|
1,0,39|
1,1,47|
1,2,90|
2,0,77|
2,1,65|
2,2,37|
];
constraint_x11_x4=[
0,0,36|
0,1,22|
0,2,55|
1,0,40|
1,1,96|
1,2,37|
2,0,1e+02|
2,1,37|
2,2,88|
];
constraint_x11_x5=[
0,0,7|
0,1,47|
0,2,2.1|
1,0,69|
1,1,9.9|
1,2,82|
2,0,56|
2,1,90|
2,2,20|
];
constraint_x11_x7=[
0,0,38|
0,1,11|
0,2,61|
1,0,7.4|
1,1,57|
1,2,1.8|
2,0,93|
2,1,15|
2,2,85|
];
constraint_x11_x9=[
0,0,28|
0,1,18|
0,2,99|
1,0,87|
1,1,77|
1,2,52|
2,0,43|
2,1,74|
2,2,56|
];
constraint_x11_x10=[
0,0,96|
0,1,24|
0,2,38|
1,0,16|
1,1,85|
1,2,14|
2,0,84|
2,1,4.2|
2,2,44|
];
constraint_x12_x2=[
0,0,65|
0,1,62|
0,2,79|
1,0,78|
1,1,18|
1,2,61|
2,0,25|
2,1,64|
2,2,4.5|
];
constraint_x12_x3=[
0,0,33|
0,1,55|
0,2,1e+02|
1,0,19|
1,1,12|
1,2,66|
2,0,88|
2,1,4.9|
2,2,5.1|
];
constraint_x12_x4=[
0,0,20|
0,1,76|
0,2,27|
1,0,35|
1,1,80|
1,2,20|
2,0,76|
2,1,68|
2,2,98|
];
constraint_x12_x6=[
0,0,33|
0,1,84|
0,2,81|
1,0,9.3|
1,1,40|
1,2,3.3|
2,0,68|
2,1,14|
2,2,12|
];
constraint_x12_x8=[
0,0,13|
0,1,98|
0,2,25|
1,0,11|
1,1,28|
1,2,71|
2,0,86|
2,1,87|
2,2,98|
];
constraint_x12_x10=[
0,0,16|
0,1,60|
0,2,80|
1,0,41|
1,1,15|
1,2,73|
2,0,62|
2,1,19|
2,2,91|
];
constraint_x1_y1=[
0,0,67|
0,1,24|
0,2,74|
1,0,47|
1,1,22|
1,2,5.5|
2,0,74|
2,1,26|
2,2,24|
];
constraint_x2_y2=[
0,0,57|
0,1,36|
0,2,77|
1,0,37|
1,1,72|
1,2,57|
2,0,73|
2,1,1.4|
2,2,36|
];
constraint_x3_y3=[
0,0,20|
0,1,27|
0,2,74|
1,0,11|
1,1,67|
1,2,80|
2,0,26|
2,1,14|
2,2,81|
];
constraint_x4_y4=[
0,0,38|
0,1,46|
0,2,93|
1,0,86|
1,1,65|
1,2,17|
2,0,70|
2,1,38|
2,2,82|
];
constraint_x5_y5=[
0,0,51|
0,1,60|
0,2,74|
1,0,80|
1,1,65|
1,2,13|
2,0,39|
2,1,84|
2,2,79|
];
constraint_x6_y6=[
0,0,75|
0,1,6|
0,2,46|
1,0,5.9|
1,1,82|
1,2,2.6|
2,0,70|
2,1,20|
2,2,19|
];
constraint_x7_y7=[
0,0,5.4|
0,1,66|
0,2,74|
1,0,74|
1,1,49|
1,2,24|
2,0,22|
2,1,40|
2,2,95|
];
constraint_x8_y8=[
0,0,19|
0,1,32|
0,2,78|
1,0,6.7|
1,1,48|
1,2,88|
2,0,45|
2,1,64|
2,2,43|
];
constraint_x9_y9=[
0,0,98|
0,1,4.3|
0,2,27|
1,0,48|
1,1,19|
1,2,35|
2,0,1e+02|
2,1,95|
2,2,15|
];
constraint_x10_y10=[
0,0,87|
0,1,77|
0,2,3|
1,0,21|
1,1,89|
1,2,87|
2,0,73|
2,1,79|
2,2,97|
];
constraint_x11_y11=[
0,0,81|
0,1,11|
0,2,58|
1,0,50|
1,1,54|
1,2,54|
2,0,83|
2,1,25|
2,2,44|
];
constraint_x12_y12=[
0,0,31|
0,1,12|
0,2,83|
1,0,59|
1,1,53|
1,2,0.085|
2,0,77|
2,1,80|
2,2,19|
];
initial_distribution_y1=[0.36,0.25,0.39];
initial_distribution_y2=[0.45,0.34,0.21];
initial_distribution_y3=[0.092,0.14,0.77];
initial_distribution_y4=[0.37,0.45,0.19];
initial_distribution_y5=[0.24,0.12,0.64];
initial_distribution_y6=[0.55,0.38,0.068];
initial_distribution_y7=[0.4,0.14,0.46];
initial_distribution_y8=[0.48,0.33,0.19];
initial_distribution_y9=[0.52,0.19,0.29];
initial_distribution_y10=[0.46,0.21,0.33];
initial_distribution_y11=[0.44,0.49,0.073];
initial_distribution_y12=[0.52,0.015,0.46];
transition_y1=[
0.18,0.37,0.45|
0.28,0.39,0.33|
0.094,0.41,0.5|
];
transition_y2=[
0.14,0.54,0.32|
0.096,0.67,0.24|
0.67,0.057,0.27|
];
transition_y3=[
0.12,0.63,0.25|
0.17,0.42,0.41|
0.39,0.098,0.51|
];
transition_y4=[
0.86,0.024,0.12|
0.52,0.19,0.29|
0.34,0.31,0.35|
];
transition_y5=[
0.72,0.045,0.24|
0.34,0.32,0.34|
0.31,0.22,0.47|
];
transition_y6=[
0.48,0.47,0.053|
0.23,0.24,0.52|
0.76,0.094,0.15|
];
transition_y7=[
0.24,0.42,0.33|
0.57,0.026,0.4|
0.45,0.13,0.42|
];
transition_y8=[
0.061,0.11,0.83|
0.19,0.37,0.44|
0.52,0.31,0.17|
];
transition_y9=[
0.037,0.53,0.43|
0.29,0.42,0.29|
0.61,0.28,0.12|
];
transition_y10=[
0.38,0.18,0.44|
0.23,0.43,0.33|
0.43,0.35,0.22|
];
transition_y11=[
0.19,0.53,0.29|
0.58,0.077,0.34|
0.033,0.55,0.41|
];
transition_y12=[
0.45,0.13,0.42|
0.2,0.46,0.34|
0.4,0.23,0.37|
];
